35518 36729 
34620 37071 
35628 36702 
36179 36508 
36288 36473 
34989 36922 
35207 36891 
36563 36418 
36672 36383 
35650 36701 
35868 36670 
35562 36719 
37251 36129 
37003 36228 
36223 36498 
36332 36463 
37606 35957 
37893 35869 
37751 35921 
38339 35636 
